c minVC: 80
p edge 100 533
e 1 5
e 4 6
e 2 7
e 3 8
e 2 10
e 3 10
e 7 10
e 1 11
e 3 11
e 8 11
e 10 11
e 9 16
e 4 18
e 6 18
e 12 19
e 13 19
e 14 20
e 13 21
e 19 21
e 9 22
e 16 22
e 2 23
e 3 23
e 7 23
e 10 23
e 11 23
e 2 24
e 7 24
e 6 26
e 14 26
e 24 26
e 6 27
e 14 27
e 26 27
e 2 28
e 7 28
e 10 28
e 11 28
e 14 28
e 23 28
e 9 29
e 16 29
e 22 29
e 12 30
e 17 30
e 21 30
e 6 31
e 17 31
e 24 31
e 26 31
e 6 32
e 18 32
e 26 32
e 27 32
e 31 32
e 12 33
e 13 33
e 19 33
e 21 33
e 30 33
e 2 34
e 10 34
e 11 34
e 14 34
e 23 34
e 28 34
e 13 35
e 19 35
e 21 35
e 33 35
e 12 36
e 2 37
e 7 37
e 24 37
e 26 37
e 31 37
e 36 38
e 2 39
e 7 39
e 10 39
e 14 39
e 24 39
e 26 39
e 28 39
e 34 39
e 37 39
e 1 40
e 5 40
e 1 41
e 40 41
e 9 42
e 16 42
e 22 42
e 25 42
e 29 42
e 2 43
e 3 43
e 10 43
e 11 43
e 23 43
e 28 43
e 34 43
e 14 44
e 20 44
e 34 44
e 9 45
e 15 45
e 16 45
e 22 45
e 29 45
e 42 45
e 15 46
e 45 46
e 14 47
e 20 47
e 34 47
e 44 47
e 13 48
e 19 48
e 21 48
e 30 48
e 33 48
e 35 48
e 7 49
e 21 49
e 24 49
e 31 49
e 37 49
e 48 49
e 9 50
e 15 50
e 16 50
e 22 50
e 29 50
e 42 50
e 45 50
e 3 51
e 8 51
e 15 51
e 46 51
e 36 52
e 38 52
e 13 53
e 19 53
e 21 53
e 30 53
e 33 53
e 48 53
e 49 53
e 6 54
e 17 54
e 24 54
e 26 54
e 31 54
e 32 54
e 37 54
e 49 54
e 3 55
e 8 55
e 11 55
e 23 55
e 51 55
e 2 56
e 3 56
e 8 56
e 10 56
e 11 56
e 23 56
e 28 56
e 34 56
e 43 56
e 55 56
e 13 57
e 19 57
e 21 57
e 24 57
e 33 57
e 37 57
e 48 57
e 49 57
e 53 57
e 4 58
e 6 58
e 18 58
e 26 58
e 32 58
e 54 58
e 25 59
e 9 60
e 13 60
e 15 60
e 16 60
e 22 60
e 29 60
e 45 60
e 50 60
e 2 61
e 7 61
e 10 61
e 24 61
e 28 61
e 37 61
e 39 61
e 49 61
e 57 61
e 7 62
e 13 62
e 48 62
e 57 62
e 60 62
e 1 63
e 5 63
e 11 63
e 40 63
e 41 63
e 15 64
e 55 64
e 60 64
e 62 64
e 1 65
e 41 65
e 63 65
e 1 66
e 3 66
e 8 66
e 11 66
e 51 66
e 55 66
e 65 66
e 9 67
e 13 67
e 15 67
e 16 67
e 22 67
e 29 67
e 45 67
e 50 67
e 60 67
e 62 67
e 64 67
e 3 68
e 8 68
e 15 68
e 51 68
e 55 68
e 56 68
e 64 68
e 66 68
e 12 69
e 17 69
e 30 69
e 17 70
e 24 70
e 30 70
e 31 70
e 37 70
e 49 70
e 53 70
e 54 70
e 69 70
e 9 71
e 22 71
e 29 71
e 35 71
e 50 71
e 60 71
e 67 71
e 2 72
e 3 72
e 7 72
e 10 72
e 23 72
e 55 72
e 56 72
e 62 72
e 64 72
e 68 72
e 12 73
e 36 73
e 38 73
e 52 73
e 6 74
e 17 74
e 24 74
e 26 74
e 31 74
e 32 74
e 37 74
e 49 74
e 54 74
e 58 74
e 70 74
e 1 75
e 5 75
e 40 75
e 41 75
e 63 75
e 25 76
e 59 76
e 15 77
e 46 77
e 51 77
e 1 78
e 5 78
e 40 78
e 41 78
e 63 78
e 65 78
e 75 78
e 3 79
e 8 79
e 15 79
e 46 79
e 51 79
e 55 79
e 64 79
e 66 79
e 68 79
e 72 79
e 77 79
e 19 80
e 21 80
e 33 80
e 35 80
e 36 80
e 38 80
e 73 80
e 3 81
e 5 81
e 10 81
e 11 81
e 23 81
e 28 81
e 34 81
e 43 81
e 44 81
e 47 81
e 56 81
e 5 82
e 14 82
e 20 82
e 34 82
e 43 82
e 44 82
e 47 82
e 81 82
e 1 83
e 5 83
e 40 83
e 41 83
e 63 83
e 75 83
e 78 83
e 2 84
e 24 84
e 26 84
e 31 84
e 32 84
e 37 84
e 39 84
e 49 84
e 54 84
e 61 84
e 70 84
e 74 84
e 14 85
e 26 85
e 27 85
e 28 85
e 32 85
e 39 85
e 44 85
e 47 85
e 82 85
e 84 85
e 9 86
e 16 86
e 22 86
e 29 86
e 42 86
e 50 86
e 71 86
e 1 87
e 5 87
e 11 87
e 34 87
e 40 87
e 43 87
e 63 87
e 78 87
e 81 87
e 82 87
e 83 87
e 7 88
e 8 88
e 15 88
e 55 88
e 60 88
e 62 88
e 64 88
e 67 88
e 68 88
e 72 88
e 79 88
e 16 89
e 25 89
e 42 89
e 59 89
e 76 89
e 5 90
e 11 90
e 23 90
e 28 90
e 34 90
e 43 90
e 44 90
e 47 90
e 56 90
e 63 90
e 78 90
e 81 90
e 82 90
e 83 90
e 87 90
e 12 91
e 17 91
e 30 91
e 69 91
e 3 92
e 8 92
e 11 92
e 15 92
e 51 92
e 55 92
e 56 92
e 64 92
e 66 92
e 68 92
e 72 92
e 79 92
e 88 92
e 3 93
e 8 93
e 15 93
e 23 93
e 55 93
e 62 93
e 64 93
e 68 93
e 72 93
e 79 93
e 88 93
e 92 93
e 9 94
e 13 94
e 60 94
e 62 94
e 64 94
e 67 94
e 71 94
e 88 94
e 93 94
e 17 95
e 21 95
e 24 95
e 30 95
e 31 95
e 37 95
e 48 95
e 49 95
e 53 95
e 54 95
e 57 95
e 61 95
e 69 95
e 70 95
e 74 95
e 84 95
e 14 96
e 26 96
e 27 96
e 32 96
e 39 96
e 47 96
e 84 96
e 85 96
e 1 97
e 8 97
e 51 97
e 65 97
e 66 97
e 24 98
e 26 98
e 31 98
e 32 98
e 37 98
e 39 98
e 49 98
e 54 98
e 61 98
e 70 98
e 74 98
e 84 98
e 95 98
e 6 99
e 14 99
e 24 99
e 26 99
e 27 99
e 31 99
e 32 99
e 37 99
e 39 99
e 54 99
e 61 99
e 74 99
e 84 99
e 85 99
e 96 99
e 98 99
e 5 100
e 11 100
e 20 100
e 34 100
e 43 100
e 44 100
e 47 100
e 56 100
e 81 100
e 82 100
e 83 100
e 87 100
e 90 100
